p cnf 9 27
2 6 0
6 0
9 4 -9 0
-1 0
1 2 3 -3 0
8 9 -2 0
-6 2 5 -1 0
1 3 -4 -5 0
-1 0
1 2 3 -3 0
-8 -5 0
5 0
9 -5 -4 5 0
1 -2 6 -9 0
8 0
9 -3 6 0
1 0
3 4 0
1 -5 -1 0
8 -4 -1 0
4 0
-7 0
2 -3 7 0
-3 2 -4 5 0
4 0
8 -5 -3 -9 0
-7 -6 6 9 0
